  2   0   0   0   0   0   0   0   0   0   0   0   0   0   0   0   0   0   0   0   0   0   0   0   0   0   0   0   0   0   0   0   0   0   0   0   0   0   0   0   0   0   0   0   0   0   0   0   0   0   0   0   0   0   0   0   0   0   0   0   0   0   0   0   0   0   0   0   0   0   0   0   0   0   0   0   0   0   0   0   0   0   0   0   0   0   0   0   0   0   0   0   0   0   0   0   0   0   0   0   0   0   0   0   0   0   0   0   0   0   0   0   0   0   0   0   0   0   0   0   0   0   0   0   0   0   0   0   0   0   0   0   0   0   0   0   0   0   0   0   0   0   0   0   0   0   0   0   0   0   0   0   0   0   0   0   0   0   0   0   0   0   0   0   0   0   0   0   0   0   0   0   0   0   0   0   0   0   0   0   0   0   0   0   0   0   0   0   0   0   0   0   0   0   0   0   0   0   0   0   0   0   0   0   0   0   0   0   0   0   0   0   0   0   0   0   0   0   0   0   0   0   0   0   0   0   0   0   0   0   0   0   0   0   0   0   0   0   0   0   0   0   0   0   0   0   0   0   0   0   0   0   0   0   0   0   0   0   0   0   0   0   0   0   0   0   0   0   0   0   0   0   0   0   0   0   0   0   0   0   0   0   0   0   0   0   0   0   0   0   0   0   0   0   0   0   0   0   0   0   0   0   0   0   0   0   0   0   0   0   0   0   0   0   0   0   0   0   0   0   0   0   0   0   0   0   0   0   0   0   0   0   0   0   0   0   0   0   0   0   0   0   0   0   0   0   0   0   0   0   0   0   0   0   0   0   0   0   0   0   0   0   0   0   0   0   0   0   0   0   0   0   0   0   0   0   0   0   0   0   0   0   0   0   0   0   0   0   0   0   0   0   0   0   0   0   0   0   0   0   0   0   0   0   0   0   0   0   0   0   0   0   0   0   0   0   0   0   0   0   0   0   0   0   0   0   0   0   0   0   0   0   0   0   0   0   0   0   0   0   0   0   0   0   0   0   0   0   0   0   0   0   0   0   0   0   0   0   0   0   0   0   0   0   0   0   0   0   0   0   0   0   0   0   0   0   0   0   0   0   0   0   0   0   0   0   0   0   0   0   0   0   0   0   0   0   0   0   0   0   0   0   0   0   0   0   0   0   0   0   0   0   0   0   0   0   0   0   0   0   0   0   0   0   0   0   0   0   0   0   0   0   0   0   0   0   0   0   0   0   0   0   0   0   0   0   0   0   0   0   0   0   0   0   0   0   0   0   0   0   0   0   0   0   0   0   0   0   0   0   0   0   0   0   0   0   0   0   0   0   0   0   0   0   0   0   0   0   0   0   0   0   0   0   0   0   0   0   0   0   0   0   0   0   0   0   0   0   0   0   0   0   0   0   0   0   0   0   0   0   0   0   0   0   0   0   0   0   0   0   0   0   0   0   0   0   0   0   0   0   0   0   0   0   0   0   0   0   0   0   0   0   0   0   0   0   0   0   0   0   0   0   0   0   0   0   0   0   0   0   0   0   0   0   0   0   0   0   0   0   0   0   0   0   0   0   0   0   0   0   0   0   0   0   0   0   0   0   0   0   0   0   0   0   0   0   0   0   0   0   0   0   0   0   0   0   0   0   0   0   0   0   0   0   0   0   0   0   0   0   0   0   0   0   0   0   0   0   0   0   0   0   0   0   0   0   0   0   0   0   0   0   0   0   0   0   0   0   0   0   0   0   0   0   0   0   0   0   0   0   0   0   0   0   0   0   0   0   0   0   0   0   0   0   0   0   0   0   0   0   0   0   0   0   0   0   0   0   0   0   0   0   0   0   0   0   0   0   0   0   0   0   0   0   0   0   0   0   0   0   0   0   0   0   0   0   0   0   0   0   0   0   0   0   0   0   0   0   0   0   0   0   0   0   0   0   0   0   0   0   0   0   0   0   0   0   0   0   0   0   0   0   0   0   0   0   0   0   0   0   0   0   0   0   0   0   0   0   0   0   0   0   0   0   0   0   0   0   0   0   0   0   0   0   0   0   0   0   0   0   0   0   0   0   0   0   0   0   0   0   0   0   0   0   0   0   0   0   0   0   0   0   0   0   0   0   0   0   0   0   0   0   0   0   0   0   0   0   0   0   0   0   0   0   0   0   0   0   0   0   0   0   0   0   0   0   0   0   0   0   0   0   0   0   0   0   0   0   0   0   0   0   0   0   0   0   0   0   0   0   0   0   0   0   0   0   0   0   0   0   0   0   0   0   0   0   0   0   0   0 
REMAINING SPACE:      84
ACCUMULATED PRIORITY: 200
EXECUTION TIME:       0.000114700
QTY PRI VAL
[2] 100 208
[0] 100 312
[0] 100 299
[0] 100 337
[0] 100 296
[0] 100 316
[0] 100 451
[0] 100 350
[0] 100 454
[0] 100 279
[0] 100 462
[0] 100 387
[0]  99 307
[0]  99 305
[0]  99 250
[0]  99 344
[0]  99 317
[0]  99 253
[0]  99 348
[0]  98 281
[0]  98 451
[0]  98 213
[0]  98 475
[0]  98 350
[0]  98 368
[0]  98 429
[0]  97 496
[0]  97 308
[0]  97 451
[0]  97 401
[0]  97 489
[0]  97 206
[0]  96 397
[0]  96 301
[0]  96 472
[0]  96 462
[0]  96 488
[0]  96 216
[0]  96 392
[0]  96 482
[0]  96 448
[0]  96 369
[0]  96 224
[0]  95 379
[0]  95 257
[0]  95 441
[0]  95 329
[0]  95 248
[0]  95 370
[0]  95 453
[0]  95 221
[0]  95 272
[0]  94 488
[0]  94 218
[0]  94 476
[0]  94 240
[0]  94 435
[0]  94 351
[0]  94 249
[0]  94 234
[0]  93 365
[0]  93 226
[0]  93 344
[0]  93 340
[0]  93 293
[0]  93 344
[0]  93 241
[0]  93 347
[0]  93 494
[0]  93 399
[0]  92 438
[0]  92 294
[0]  92 301
[0]  92 264
[0]  92 386
[0]  91 498
[0]  91 479
[0]  91 282
[0]  91 385
[0]  91 337
[0]  91 413
[0]  91 367
[0]  91 243
[0]  91 378
[0]  91 230
[0]  91 211
[0]  91 360
[0]  91 364
[0]  91 247
[0]  91 433
[0]  91 469
[0]  91 396
[0]  91 345
[0]  90 305
[0]  90 406
[0]  90 361
[0]  90 496
[0]  90 335
[0]  90 328
[0]  90 262
[0]  89 224
[0]  89 419
[0]  89 321
[0]  89 495
[0]  89 437
[0]  89 321
[0]  89 399
[0]  89 453
[0]  89 401
[0]  89 216
[0]  89 405
[0]  89 287
[0]  89 312
[0]  89 241
[0]  88 258
[0]  88 385
[0]  88 462
[0]  88 327
[0]  88 206
[0]  88 206
[0]  88 446
[0]  88 324
[0]  88 492
[0]  88 434
[0]  88 494
[0]  88 343
[0]  87 428
[0]  87 324
[0]  87 280
[0]  87 489
[0]  87 400
[0]  87 491
[0]  87 232
[0]  87 463
[0]  87 454
[0]  87 319
[0]  86 240
[0]  86 411
[0]  86 241
[0]  86 446
[0]  86 317
[0]  86 489
[0]  86 363
[0]  86 374
[0]  86 369
[0]  86 475
[0]  86 380
[0]  85 235
[0]  85 412
[0]  85 295
[0]  85 436
[0]  85 262
[0]  85 449
[0]  85 267
[0]  85 407
[0]  85 416
[0]  85 437
[0]  85 296
[0]  84 480
[0]  84 224
[0]  84 220
[0]  84 430
[0]  84 290
[0]  83 220
[0]  83 337
[0]  83 459
[0]  83 473
[0]  83 455
[0]  83 435
[0]  83 333
[0]  83 474
[0]  83 283
[0]  83 324
[0]  83 228
[0]  83 490
[0]  82 277
[0]  82 469
[0]  82 270
[0]  82 330
[0]  82 393
[0]  82 475
[0]  82 417
[0]  82 248
[0]  81 345
[0]  81 387
[0]  81 339
[0]  81 322
[0]  81 305
[0]  81 361
[0]  81 498
[0]  81 328
[0]  81 434
[0]  81 497
[0]  81 452
[0]  81 477
[0]  80 373
[0]  80 287
[0]  80 245
[0]  80 482
[0]  80 432
[0]  80 305
[0]  79 445
[0]  79 430
[0]  79 378
[0]  79 300
[0]  79 465
[0]  79 264
[0]  79 404
[0]  79 427
[0]  79 457
[0]  79 420
[0]  78 412
[0]  78 312
[0]  78 299
[0]  78 231
[0]  78 295
[0]  78 496
[0]  78 341
[0]  78 212
[0]  78 490
[0]  77 426
[0]  77 336
[0]  77 367
[0]  77 352
[0]  77 256
[0]  77 272
[0]  77 412
[0]  77 415
[0]  77 294
[0]  77 221
[0]  77 422
[0]  76 434
[0]  76 440
[0]  76 257
[0]  76 332
[0]  76 329
[0]  76 208
[0]  76 340
[0]  76 242
[0]  76 301
[0]  76 277
[0]  76 346
[0]  76 412
[0]  76 439
[0]  76 317
[0]  75 283
[0]  75 261
[0]  75 269
[0]  75 418
[0]  75 255
[0]  75 250
[0]  75 437
[0]  74 200
[0]  74 487
[0]  74 446
[0]  74 437
[0]  74 409
[0]  74 276
[0]  74 232
[0]  74 356
[0]  74 200
[0]  74 238
[0]  74 311
[0]  74 325
[0]  74 365
[0]  74 493
[0]  74 355
[0]  73 399
[0]  73 227
[0]  73 465
[0]  73 420
[0]  73 453
[0]  73 356
[0]  73 238
[0]  73 460
[0]  72 225
[0]  72 315
[0]  72 320
[0]  72 383
[0]  72 260
[0]  72 406
[0]  72 372
[0]  72 487
[0]  72 275
[0]  72 488
[0]  72 255
[0]  72 422
[0]  72 363
[0]  71 374
[0]  71 217
[0]  71 287
[0]  71 222
[0]  71 456
[0]  71 449
[0]  71 472
[0]  71 470
[0]  70 311
[0]  70 232
[0]  70 285
[0]  70 360
[0]  70 383
[0]  70 494
[0]  70 440
[0]  70 297
[0]  69 413
[0]  69 299
[0]  69 382
[0]  69 336
[0]  69 439
[0]  69 252
[0]  69 484
[0]  69 301
[0]  69 499
[0]  69 309
[0]  68 391
[0]  68 411
[0]  68 284
[0]  68 349
[0]  68 308
[0]  68 468
[0]  68 421
[0]  68 267
[0]  68 331
[0]  68 275
[0]  68 245
[0]  67 487
[0]  67 226
[0]  67 214
[0]  67 265
[0]  67 374
[0]  67 329
[0]  67 305
[0]  67 257
[0]  67 256
[0]  67 487
[0]  67 411
[0]  67 382
[0]  66 423
[0]  66 381
[0]  66 273
[0]  66 307
[0]  66 451
[0]  66 392
[0]  66 487
[0]  66 494
[0]  66 202
[0]  66 298
[0]  66 325
[0]  65 336
[0]  65 368
[0]  65 307
[0]  65 315
[0]  65 351
[0]  65 343
[0]  65 417
[0]  65 358
[0]  65 495
[0]  65 206
[0]  65 341
[0]  65 401
[0]  65 213
[0]  65 454
[0]  65 338
[0]  65 275
[0]  65 287
[0]  64 431
[0]  64 221
[0]  64 340
[0]  64 302
[0]  64 436
[0]  64 241
[0]  64 422
[0]  63 300
[0]  63 365
[0]  63 305
[0]  63 469
[0]  63 361
[0]  63 281
[0]  63 323
[0]  63 454
[0]  63 282
[0]  63 428
[0]  63 500
[0]  63 498
[0]  63 435
[0]  63 319
[0]  63 293
[0]  62 444
[0]  62 203
[0]  62 321
[0]  62 414
[0]  62 423
[0]  62 368
[0]  62 255
[0]  62 422
[0]  61 255
[0]  61 402
[0]  61 275
[0]  61 342
[0]  61 304
[0]  61 270
[0]  61 253
[0]  61 253
[0]  61 373
[0]  61 334
[0]  61 305
[0]  61 408
[0]  61 460
[0]  61 329
[0]  61 231
[0]  61 412
[0]  61 278
[0]  60 354
[0]  60 370
[0]  60 296
[0]  60 368
[0]  60 235
[0]  60 446
[0]  60 205
[0]  60 242
[0]  60 461
[0]  60 369
[0]  60 337
[0]  60 427
[0]  59 221
[0]  59 236
[0]  59 481
[0]  59 263
[0]  59 451
[0]  59 352
[0]  59 358
[0]  59 215
[0]  59 214
[0]  59 416
[0]  59 289
[0]  59 201
[0]  58 482
[0]  58 327
[0]  58 497
[0]  58 345
[0]  58 321
[0]  58 474
[0]  58 271
[0]  58 378
[0]  58 375
[0]  58 474
[0]  58 288
[0]  58 301
[0]  58 368
[0]  57 357
[0]  57 315
[0]  57 359
[0]  57 209
[0]  57 283
[0]  57 484
[0]  57 254
[0]  57 204
[0]  56 424
[0]  56 465
[0]  56 425
[0]  56 435
[0]  56 349
[0]  56 202
[0]  56 315
[0]  56 493
[0]  56 238
[0]  56 308
[0]  56 322
[0]  56 500
[0]  56 244
[0]  55 287
[0]  55 314
[0]  55 255
[0]  55 260
[0]  55 227
[0]  55 490
[0]  55 227
[0]  55 373
[0]  55 448
[0]  55 289
[0]  55 335
[0]  55 351
[0]  55 460
[0]  54 315
[0]  54 339
[0]  54 446
[0]  54 286
[0]  54 488
[0]  54 256
[0]  54 488
[0]  54 360
[0]  54 368
[0]  53 463
[0]  53 464
[0]  53 319
[0]  53 211
[0]  53 219
[0]  53 333
[0]  53 391
[0]  53 271
[0]  53 300
[0]  53 387
[0]  53 428
[0]  52 384
[0]  52 313
[0]  52 484
[0]  52 364
[0]  52 242
[0]  52 444
[0]  52 211
[0]  52 321
[0]  52 296
[0]  52 257
[0]  52 420
[0]  52 365
[0]  52 247
[0]  52 293
[0]  51 230
[0]  51 463
[0]  51 363
[0]  51 293
[0]  51 424
[0]  51 338
[0]  51 353
[0]  51 216
[0]  51 339
[0]  51 322
[0]  51 460
[0]  51 246
[0]  51 235
[0]  51 421
[0]  51 480
[0]  50 305
[0]  50 335
[0]  50 227
[0]  50 432
[0]  50 307
[0]  50 275
[0]  50 332
[0]  50 485
[0]  50 233
[0]  50 463
[0]  50 348
[0]  50 404
[0]  50 484
[0]  49 319
[0]  49 216
[0]  49 328
[0]  49 332
[0]  49 403
[0]  49 273
[0]  49 339
[0]  49 434
[0]  49 458
[0]  49 452
[0]  49 452
[0]  48 201
[0]  48 493
[0]  48 405
[0]  48 397
[0]  48 318
[0]  48 318
[0]  48 463
[0]  48 267
[0]  48 335
[0]  48 432
[0]  48 280
[0]  47 216
[0]  47 316
[0]  47 312
[0]  47 314
[0]  47 321
[0]  47 203
[0]  47 203
[0]  47 238
[0]  47 215
[0]  47 217
[0]  47 396
[0]  47 336
[0]  47 446
[0]  47 421
[0]  47 476
[0]  47 342
[0]  47 396
[0]  47 368
[0]  47 428
[0]  47 349
[0]  47 404
[0]  46 393
[0]  46 200
[0]  46 453
[0]  46 378
[0]  46 300
[0]  46 384
[0]  46 491
[0]  46 363
[0]  46 448
[0]  46 450
[0]  46 250
[0]  46 323
[0]  45 483
[0]  45 367
[0]  45 346
[0]  45 404
[0]  45 450
[0]  45 254
[0]  45 281
[0]  45 455
[0]  45 234
[0]  45 290
[0]  45 451
[0]  45 268
[0]  45 337
[0]  44 413
[0]  44 365
[0]  44 281
[0]  44 480
[0]  44 439
[0]  44 494
[0]  44 321
[0]  44 347
[0]  44 271
[0]  44 290
[0]  43 246
[0]  43 422
[0]  43 230
[0]  43 497
[0]  43 222
[0]  43 406
[0]  43 344
[0]  43 348
[0]  42 479
[0]  42 224
[0]  42 429
[0]  42 291
[0]  42 462
[0]  42 238
[0]  42 467
[0]  42 346
[0]  42 286
[0]  42 467
[0]  42 476
[0]  42 411
[0]  42 214
[0]  41 317
[0]  41 318
[0]  41 333
[0]  41 363
[0]  41 284
[0]  41 208
[0]  41 321
[0]  41 314
[0]  41 281
[0]  40 279
[0]  40 428
[0]  40 261
[0]  40 309
[0]  40 497
[0]  40 490
[0]  40 408
[0]  40 476
[0]  39 239
[0]  39 238
[0]  39 376
[0]  39 313
[0]  39 390
[0]  39 283
[0]  39 332
[0]  39 349
[0]  39 457
[0]  39 389
[0]  39 447
[0]  39 229
[0]  38 441
[0]  38 293
[0]  38 385
[0]  38 336
[0]  38 292
[0]  38 464
[0]  38 373
[0]  38 206
[0]  38 219
[0]  37 213
[0]  37 383
[0]  37 337
[0]  37 450
[0]  37 265
[0]  37 267
[0]  37 323
[0]  37 343
[0]  37 428
[0]  37 294
[0]  37 255
[0]  37 224
[0]  36 394
[0]  36 452
[0]  36 286
[0]  36 246
[0]  36 241
[0]  36 263
[0]  36 463
[0]  36 265
[0]  36 384
[0]  36 383
[0]  36 259
[0]  35 308
[0]  35 493
[0]  35 269
[0]  35 264
[0]  35 490
[0]  35 414
[0]  35 320
[0]  35 359
[0]  35 494
[0]  35 265
[0]  35 286
[0]  35 259
[0]  35 343
[0]  34 281
[0]  34 488
[0]  34 401
[0]  34 302
[0]  34 235
[0]  34 242
[0]  34 481
[0]  33 467
[0]  33 441
[0]  33 325
[0]  33 261
[0]  33 280
[0]  33 253
[0]  33 356
[0]  33 366
[0]  33 425
[0]  32 475
[0]  32 489
[0]  32 489
[0]  32 494
[0]  32 364
[0]  32 299
[0]  32 305
[0]  32 299
[0]  32 296
[0]  32 497
[0]  31 290
[0]  31 261
[0]  31 340
[0]  31 218
[0]  31 399
[0]  31 328
[0]  31 215
[0]  31 391
[0]  31 324
[0]  31 267
[0]  31 443
[0]  30 439
[0]  30 407
[0]  30 491
[0]  30 211
[0]  30 203
[0]  30 397
[0]  30 374
[0]  30 346
[0]  30 499
[0]  30 291
[0]  30 361
[0]  30 450
[0]  29 302
[0]  29 420
[0]  29 200
[0]  29 473
[0]  29 498
[0]  29 395
[0]  29 461
[0]  29 445
[0]  29 234
[0]  28 200
[0]  28 262
[0]  28 448
[0]  28 477
[0]  28 487
[0]  28 450
[0]  28 365
[0]  28 484
[0]  28 496
[0]  28 236
[0]  28 263
[0]  28 360
[0]  28 336
[0]  28 381
[0]  28 445
[0]  27 462
[0]  27 447
[0]  27 479
[0]  27 478
[0]  27 257
[0]  27 426
[0]  27 443
[0]  27 437
[0]  27 218
[0]  27 349
[0]  27 414
[0]  27 336
[0]  27 311
[0]  27 274
[0]  27 381
[0]  27 386
[0]  27 301
[0]  27 302
[0]  27 418
[0]  26 368
[0]  26 308
[0]  26 230
[0]  26 285
[0]  26 397
[0]  26 268
[0]  26 489
[0]  26 224
[0]  26 496
[0]  26 270
[0]  26 416
[0]  26 301
[0]  26 470
[0]  26 410
[0]  26 469
[0]  26 427
[0]  25 343
[0]  25 411
[0]  25 319
[0]  25 236
[0]  25 237
[0]  25 467
[0]  25 236
[0]  25 210
[0]  25 287
[0]  25 488
[0]  25 455
[0]  25 421
[0]  25 497
[0]  25 219
[0]  24 399
[0]  24 258
[0]  24 303
[0]  24 362
[0]  24 220
[0]  24 294
[0]  23 434
[0]  23 327
[0]  23 243
[0]  23 311
[0]  23 378
[0]  23 428
[0]  23 489
[0]  23 480
[0]  23 337
[0]  23 393
[0]  23 436
[0]  23 495
[0]  23 274
[0]  23 413
[0]  23 479
[0]  22 331
[0]  22 350
[0]  22 230
[0]  22 367
[0]  22 362
[0]  22 354
[0]  22 306
[0]  22 289
[0]  22 347
[0]  22 436
[0]  21 203
[0]  21 278
[0]  21 303
[0]  21 496
[0]  21 207
[0]  21 492
[0]  21 354
[0]  21 415
[0]  21 414
[0]  20 414
[0]  20 238
[0]  20 381
[0]  20 415
[0]  20 475
[0]  20 302
[0]  20 258
[0]  20 358
[0]  20 322
[0]  20 376
[0]  20 216
[0]  19 262
[0]  19 379
[0]  19 263
[0]  19 417
[0]  19 457
[0]  19 295
[0]  19 414
[0]  19 365
[0]  19 401
[0]  19 383
[0]  19 311
[0]  19 308
[0]  19 239
[0]  19 341
[0]  18 230
[0]  18 405
[0]  18 228
[0]  18 296
[0]  18 349
[0]  18 462
[0]  18 426
[0]  18 399
[0]  18 298
[0]  18 430
[0]  17 482
[0]  17 315
[0]  17 436
[0]  17 291
[0]  17 317
[0]  17 286
[0]  17 270
[0]  17 201
[0]  16 440
[0]  16 331
[0]  16 364
[0]  16 259
[0]  16 333
[0]  16 410
[0]  16 368
[0]  16 490
[0]  16 460
[0]  16 386
[0]  16 461
[0]  16 479
[0]  16 273
[0]  15 205
[0]  15 341
[0]  15 315
[0]  15 495
[0]  15 411
[0]  15 254
[0]  15 500
[0]  15 377
[0]  15 455
[0]  15 476
[0]  15 230
[0]  15 366
[0]  15 419
[0]  14 393
[0]  14 213
[0]  14 482
[0]  14 462
[0]  14 281
[0]  14 285
[0]  14 341
[0]  14 263
[0]  14 259
[0]  14 363
[0]  14 357
[0]  14 240
[0]  14 227
[0]  13 243
[0]  13 211
[0]  13 406
[0]  13 271
[0]  13 393
[0]  13 383
[0]  13 477
[0]  13 402
[0]  13 488
[0]  12 277
[0]  12 445
[0]  12 355
[0]  12 204
[0]  12 202
[0]  12 479
[0]  12 478
[0]  12 488
[0]  12 360
[0]  12 248
[0]  12 463
[0]  12 450
[0]  12 370
[0]  12 344
[0]  12 301
[0]  11 452
[0]  11 498
[0]  11 427
[0]  11 363
[0]  11 389
[0]  11 494
[0]  11 344
[0]  11 247
[0]  10 332
[0]  10 411
[0]  10 274
[0]  10 301
[0]  10 392
[0]  10 220
